glpk/solutions/path6.sol
Path 6 - Routes
z = 1950.0
x13 = 0.0
x14 = 0.0
x15 = 50.0
x16 = 0.0
x23 = 0.0
x24 = 0.0
x25 = 100.0
x26 = 100.0
x34 = 0.0
x35 = 0.0
x36 = 0.0
x45 = 0.0
x46 = 0.0
